NAME : n60w100.003.610.tour
COMMENT : Length = 610
COMMENT : Found by LKH [Keld Helsgaun] Tue Nov  7 19:35:19 2017
TYPE : TOUR
DIMENSION : 61
TOUR_SECTION
1
10
56
4
2
25
33
7
41
45
31
55
22
37
23
17
36
15
51
9
6
12
18
60
30
27
20
29
53
52
34
59
44
47
42
46
58
39
57
43
16
40
8
49
48
14
13
21
19
5
32
3
54
50
24
26
11
28
35
38
61
-1
EOF
